c Generated map
c Size: 8 * 8, weights in range: 1 to 10, walls: True, with ratio 0.05
c dim 2 of 10
c
p sp 64 101
c graph contains 64 nodes and 101 arcs
c
a 1 9 8
a 9 1 8
a 1 2 6
a 2 1 6
a 2 10 3
a 10 2 3
a 2 3 1
a 3 2 1
a 3 11 9
a 11 3 9
a 3 4 4
a 4 3 4
a 4 12 5
a 12 4 5
a 6 14 4
a 14 6 4
a 6 7 5
a 7 6 5
a 7 15 5
a 15 7 5
a 7 8 1
a 8 7 1
a 8 16 10
a 16 8 10
a 9 17 4
a 17 9 4
a 9 10 6
a 10 9 6
a 10 18 2
a 18 10 2
a 10 11 7
a 11 10 7
a 11 19 5
a 19 11 5
a 11 12 3
a 12 11 3
a 12 20 1
a 20 12 1
a 12 13 8
a 13 12 8
a 13 21 7
a 21 13 7
a 13 14 5
a 14 13 5
a 14 22 5
a 22 14 5
a 14 15 1
a 15 14 1
a 15 23 6
a 23 15 6
a 15 16 9
a 16 15 9
a 16 24 2
a 24 16 2
a 17 25 10
a 25 17 10
a 17 18 2
a 18 17 2
a 18 26 4
a 26 18 4
a 18 19 8
a 19 18 8
a 19 27 9
a 27 19 9
a 19 20 6
a 20 19 6
a 20 28 5
a 28 20 5
a 20 21 9
a 21 20 9
a 21 29 9
a 29 21 9
a 21 22 7
a 22 21 7
a 22 30 6
a 30 22 6
a 22 23 2
a 23 22 2
a 23 31 10
a 31 23 10
a 23 24 5
a 24 23 5
a 24 32 5
a 32 24 5
a 25 33 1
a 33 25 1
a 25 26 9
a 26 25 9
a 26 34 8
a 34 26 8
a 26 27 10
a 27 26 10
a 27 35 6
a 35 27 6
a 27 28 9
a 28 27 9
a 28 36 6
a 36 28 6
a 28 29 1
a 29 28 1
a 29 37 8
a 37 29 8
a 29 30 3
a 30 29 3
a 30 38 1
a 38 30 1
a 30 31 10
a 31 30 10
a 31 39 4
a 39 31 4
a 31 32 8
a 32 31 8
a 32 40 4
a 40 32 4
a 33 41 7
a 41 33 7
a 33 34 2
a 34 33 2
a 34 35 10
a 35 34 10
a 35 43 6
a 43 35 6
a 35 36 10
a 36 35 10
a 36 44 5
a 44 36 5
a 36 37 2
a 37 36 2
a 37 45 9
a 45 37 9
a 37 38 10
a 38 37 10
a 38 46 3
a 46 38 3
a 38 39 10
a 39 38 10
a 39 47 6
a 47 39 6
a 39 40 9
a 40 39 9
a 40 48 4
a 48 40 4
a 41 49 10
a 49 41 10
a 43 51 9
a 51 43 9
a 43 44 10
a 44 43 10
a 44 52 4
a 52 44 4
a 44 45 3
a 45 44 3
a 45 53 5
a 53 45 5
a 45 46 8
a 46 45 8
a 46 47 6
a 47 46 6
a 47 55 5
a 55 47 5
a 47 48 1
a 48 47 1
a 48 56 7
a 56 48 7
a 49 57 7
a 57 49 7
a 49 50 2
a 50 49 2
a 50 58 10
a 58 50 10
a 50 51 6
a 51 50 6
a 51 59 3
a 59 51 3
a 51 52 10
a 52 51 10
a 52 60 7
a 60 52 7
a 52 53 10
a 53 52 10
a 53 61 4
a 61 53 4
a 55 63 5
a 63 55 5
a 55 56 5
a 56 55 5
a 56 64 8
a 64 56 8
a 57 58 7
a 58 57 7
a 58 59 4
a 59 58 4
a 59 60 8
a 60 59 8
a 60 61 9
a 61 60 9
a 61 62 7
a 62 61 7
a 62 63 7
a 63 62 7
a 63 64 3
a 64 63 3
